
===== New CPLEX run =====
Instance: /home/yorig/tuner/mpils-tests/instances/miplib/medium-1/momentum1.mps
Config: /scratch/yorig/mpils-results-grid-ticks-10000/medium-1/16proc/seed-5/6_momentum1_seed-5_20260425_215516/iterated_local_search/run_2_worker_2/ils_config_16963849344426087295.prm
========================

Selected objective sense:  MINIMIZE
Selected objective  name:  MINIMIZE
Selected RHS        name:  rhs
Selected bound      name:  bnd
Version identifier: 22.1.2.0 | 2024-11-26 | 0edbb82fd
CPXPARAM_Threads                                 8
CPXPARAM_Parallel                                1
CPXPARAM_MIP_Cuts_Cliques                        -1
CPXPARAM_MIP_Cuts_FlowCovers                     2
CPXPARAM_MIP_Cuts_Implied                        2
CPXPARAM_MIP_Limits_GomoryCand                   50
CPXPARAM_MIP_Cuts_Gomory                         2
CPXPARAM_MIP_Cuts_PathCut                        1
CPXPARAM_MIP_Cuts_MIRCut                         2
CPXPARAM_Emphasis_MIP                            2
CPXPARAM_DetTimeLimit                            10000
Tried aggregator 3 times.
MIP Presolve eliminated 30810 rows and 1362 columns.
MIP Presolve modified 22293 coefficients.
Aggregator did 232 substitutions.
Reduced MIP has 11638 rows, 3580 columns, and 46688 nonzeros.
Reduced MIP has 1625 binaries, 0 generals, 0 SOSs, and 0 indicators.
Presolve time = 0.10 sec. (139.58 ticks)
Found incumbent of value 533875.101733 after 0.12 sec. (154.72 ticks)
Probing fixed 392 vars, tightened 1078 bounds.
Probing changed sense of 113 constraints.
Probing time = 0.08 sec. (90.30 ticks)
Cover probing fixed 0 vars, tightened 267 bounds.
Tried aggregator 2 times.
MIP Presolve eliminated 3295 rows and 847 columns.
MIP Presolve modified 7082 coefficients.
Aggregator did 11 substitutions.
Reduced MIP has 8332 rows, 2722 columns, and 31418 nonzeros.
Reduced MIP has 1168 binaries, 0 generals, 0 SOSs, and 0 indicators.
Presolve time = 0.04 sec. (44.43 ticks)
Probing fixed 1 vars, tightened 256 bounds.
Probing time = 0.04 sec. (44.20 ticks)
Cover probing fixed 0 vars, tightened 190 bounds.
Tried aggregator 1 time.
Detecting symmetries...
MIP Presolve eliminated 26 rows and 2 columns.
MIP Presolve modified 5059 coefficients.
Reduced MIP has 8306 rows, 2720 columns, and 31355 nonzeros.
Reduced MIP has 1167 binaries, 0 generals, 0 SOSs, and 0 indicators.
Presolve time = 0.02 sec. (22.06 ticks)
Probing fixed 0 vars, tightened 90 bounds.
Probing time = 0.04 sec. (40.55 ticks)
Cover probing fixed 0 vars, tightened 69 bounds.
Clique table members: 18692.
MIP emphasis: optimality.
MIP search method: dynamic search.
Parallel mode: deterministic, using up to 8 threads.
Root relaxation solution time = 0.11 sec. (144.31 ticks)

        Nodes                                         Cuts/
   Node  Left     Objective  IInf  Best Integer    Best Bound    ItCnt     Gap

*     0+    0                       533875.1017    44880.8652            91.59%
*     0+    0                       533847.9795    44880.8652            91.59%
*     0+    0                       333826.8649    44880.8652            86.56%
*     0+    0                       333809.0666    44880.8652            86.55%
      0     0    79213.0345   216   333809.0666    79213.0345     1531   76.27%
      0     0    96255.0282   295   333809.0666     Cuts: 198     2073   71.16%
      0     0    96264.3224   294   333809.0666     Cuts: 111     2624   71.16%
      0     0    96265.1898   302   333809.0666      Cuts: 49     2739   71.16%
*     0+    0                       333792.4409    96265.1898            71.16%
      0     0  -1.00000e+75     0   333792.4409    96265.1898     2739   71.16%
*     0+    0                       320985.2647    96265.1898            70.01%
      0     0    96265.4687   311   320985.2647      Cuts: 33     2826   70.01%
*     0+    0                       320968.4480    96265.4687            70.01%
      0     0  -1.00000e+75     0   320968.4480    96265.4687     2826   70.01%
Detecting symmetries...
      0     2    96265.4687   311   320968.4480    96265.4687     2826   70.01%
Elapsed time = 2.99 sec. (4893.06 ticks, tree = 0.02 MB, solutions = 7)
     16    13   102691.3963   238   320968.4480    96265.6852     4392   70.01%
*    25+    4                       320968.4479    96281.7242            70.00%
*    26+    7                       314554.8171    96281.7242            69.39%
     28    19   102701.3326   219   314554.8171    96281.7242     6560   69.39%
*    36+    5                       301726.1207    96286.5692            68.09%
     52    25   103390.2342   247   301726.1207    96286.5692     8140   68.09%
     65    59   103008.5658   265   301726.1207    96286.5692    14513   68.09%
     71    58   109115.1367   120   301726.1207    96292.6247    15307   68.09%
     75    70   103590.0533   260   301726.1207    96292.6247    19627   68.09%
    100    80   109120.0083   138   301726.1207    96292.6247    23436   68.09%
    117    99    97317.3706   271   301726.1207    96292.6247    36006   68.09%
    133   114   102760.9650   254   301726.1207    96292.6247    39124   68.09%
    233   172   117331.2692   219   301726.1207    96292.6247    57230   68.09%
Elapsed time = 4.96 sec. (8164.66 ticks, tree = 0.40 MB, solutions = 11)
    343   262   115844.9111   113   301726.1207    96292.6247    75237   68.09%

Implied bound cuts applied:  23
Flow cuts applied:  203
Mixed integer rounding cuts applied:  150
Flow path cuts applied:  0
Zero-half cuts applied:  27
Gomory fractional cuts applied:  4

Root node processing (before b&c):
  Real time             =    2.96 sec. (4859.75 ticks)
Parallel b&c, 8 threads:
  Real time             =    3.13 sec. (5148.97 ticks)
  Sync time (average)   =    0.32 sec.
  Wait time (average)   =    0.00 sec.
                          ------------
Total (root+branch&cut) =    6.09 sec. (10008.72 ticks)
Gap: 68.09%
Upper bound: 301726
Lower bound: 96292.6
End of CPLEX run. Time: 6.09287 seconds

===== New CPLEX run =====
Instance: /home/yorig/tuner/mpils-tests/instances/miplib/medium-1/momentum1.mps
Config: /scratch/yorig/mpils-results-grid-ticks-10000/medium-1/16proc/seed-5/6_momentum1_seed-5_20260425_215516/iterated_local_search/run_2_worker_2/ils_config_12597734000079596378.prm
========================

Selected objective sense:  MINIMIZE
Selected objective  name:  MINIMIZE
Selected RHS        name:  rhs
Selected bound      name:  bnd
Version identifier: 22.1.2.0 | 2024-11-26 | 0edbb82fd
CPXPARAM_Threads                                 8
CPXPARAM_Parallel                                1
CPXPARAM_MIP_Cuts_Cliques                        2
CPXPARAM_MIP_Cuts_FlowCovers                     2
CPXPARAM_MIP_Cuts_Implied                        2
CPXPARAM_MIP_Limits_GomoryCand                   50
CPXPARAM_MIP_Cuts_Gomory                         2
CPXPARAM_MIP_Cuts_PathCut                        1
CPXPARAM_MIP_Cuts_MIRCut                         2
CPXPARAM_Emphasis_MIP                            2
CPXPARAM_DetTimeLimit                            10000
Tried aggregator 3 times.
MIP Presolve eliminated 30810 rows and 1362 columns.
MIP Presolve modified 22293 coefficients.
Aggregator did 232 substitutions.
Reduced MIP has 11638 rows, 3580 columns, and 46688 nonzeros.
Reduced MIP has 1625 binaries, 0 generals, 0 SOSs, and 0 indicators.
Presolve time = 0.10 sec. (139.58 ticks)
Found incumbent of value 533875.101733 after 0.12 sec. (154.72 ticks)
Probing fixed 392 vars, tightened 1078 bounds.
Probing changed sense of 113 constraints.
Probing time = 0.08 sec. (90.30 ticks)
Cover probing fixed 0 vars, tightened 267 bounds.
Tried aggregator 2 times.
MIP Presolve eliminated 3295 rows and 847 columns.
MIP Presolve modified 7082 coefficients.
Aggregator did 11 substitutions.
Reduced MIP has 8332 rows, 2722 columns, and 31418 nonzeros.
Reduced MIP has 1168 binaries, 0 generals, 0 SOSs, and 0 indicators.
Presolve time = 0.04 sec. (44.43 ticks)
Probing fixed 1 vars, tightened 256 bounds.
Probing time = 0.04 sec. (44.20 ticks)
Cover probing fixed 0 vars, tightened 190 bounds.
Tried aggregator 1 time.
Detecting symmetries...
MIP Presolve eliminated 26 rows and 2 columns.
MIP Presolve modified 5059 coefficients.
Reduced MIP has 8306 rows, 2720 columns, and 31355 nonzeros.
Reduced MIP has 1167 binaries, 0 generals, 0 SOSs, and 0 indicators.
Presolve time = 0.02 sec. (22.06 ticks)
Probing fixed 0 vars, tightened 90 bounds.
Probing time = 0.04 sec. (40.55 ticks)
Cover probing fixed 0 vars, tightened 69 bounds.
Clique table members: 18692.
MIP emphasis: optimality.
MIP search method: dynamic search.
Parallel mode: deterministic, using up to 8 threads.
Root relaxation solution time = 0.11 sec. (144.31 ticks)

        Nodes                                         Cuts/
   Node  Left     Objective  IInf  Best Integer    Best Bound    ItCnt     Gap

*     0+    0                       533875.1017    44880.8652            91.59%
*     0+    0                       533847.9795    44880.8652            91.59%
*     0+    0                       333826.8649    44880.8652            86.56%
*     0+    0                       333809.0666    44880.8652            86.55%
      0     0    79213.0345   216   333809.0666    79213.0345     1531   76.27%
      0     0    96255.0282   295   333809.0666     Cuts: 209     2073   71.16%
      0     0    96264.3271   294   333809.0666     Cuts: 116     2617   71.16%
      0     0    96265.1819   299   333809.0666      Cuts: 87     2732   71.16%
*     0+    0                       333808.9657    96265.1819            71.16%
      0     0  -1.00000e+75     0   333808.9657    96265.1819     2732   71.16%
*     0+    0                       320985.2647    96265.1819            70.01%
      0     0    96267.2463   329   320985.2647      Cuts: 48     2900   70.01%
*     0+    0                       320985.2644    96268.7315            70.01%
      0     0  -1.00000e+75     0   320985.2644    96268.7315     2900   70.01%
Detecting symmetries...
      0     2    96267.2463   329   320985.2644    96268.7315     2900   70.01%
Elapsed time = 3.03 sec. (5036.71 ticks, tree = 0.02 MB, solutions = 7)
     14    14   102715.7311   216   320985.2644    96283.4490     4896   70.00%
*    31+    7                       308126.1067    96283.4490            68.75%
     38    33    96803.3291   232   308126.1067    96283.4490     8156   68.75%
     55    38    96890.8746   265   308126.1067    96292.6079     9926   68.75%
     61    55   102705.7679   210   308126.1067    96292.6079    14127   68.75%
     81    72    96457.1630   234   308126.1067    96341.0402    22302   68.73%
     91    83    97663.3788   225   308126.1067    96341.0402    24795   68.73%
    120    94   109122.4418   145   308126.1067    96341.0402    26194   68.73%
    154   117    96500.3202   197   308126.1067    96341.0402    35599   68.73%
    167   158    98735.6981   214   308126.1067    96341.0402    41291   68.73%
    299   205   121959.4154   101   308126.1067    96341.0402    51681   68.73%
Elapsed time = 5.12 sec. (8387.77 ticks, tree = 0.59 MB, solutions = 11)
    459   351   103806.9484   147   308126.1067    96341.0402    71441   68.73%

Clique cuts applied:  36
Implied bound cuts applied:  14
Flow cuts applied:  158
Mixed integer rounding cuts applied:  102
Flow path cuts applied:  0
Zero-half cuts applied:  18
Gomory fractional cuts applied:  4

Root node processing (before b&c):
  Real time             =    3.00 sec. (5002.07 ticks)
Parallel b&c, 8 threads:
  Real time             =    3.23 sec. (5010.33 ticks)
  Sync time (average)   =    0.38 sec.
  Wait time (average)   =    0.00 sec.
                          ------------
Total (root+branch&cut) =    6.23 sec. (10012.40 ticks)
Gap: 68.73%
Upper bound: 308126
Lower bound: 96341
End of CPLEX run. Time: 6.23029 seconds

===== New CPLEX run =====
Instance: /home/yorig/tuner/mpils-tests/instances/miplib/medium-1/momentum1.mps
Config: /scratch/yorig/mpils-results-grid-ticks-10000/medium-1/16proc/seed-5/6_momentum1_seed-5_20260425_215516/iterated_local_search/run_2_worker_2/ils_config_15617318988395448332.prm
========================

Selected objective sense:  MINIMIZE
Selected objective  name:  MINIMIZE
Selected RHS        name:  rhs
Selected bound      name:  bnd
Version identifier: 22.1.2.0 | 2024-11-26 | 0edbb82fd
CPXPARAM_Threads                                 8
CPXPARAM_Parallel                                1
CPXPARAM_MIP_Cuts_Cliques                        -1
CPXPARAM_MIP_Cuts_FlowCovers                     2
CPXPARAM_MIP_Cuts_Implied                        -1
CPXPARAM_MIP_Limits_GomoryCand                   50
CPXPARAM_MIP_Cuts_Gomory                         2
CPXPARAM_MIP_Cuts_PathCut                        1
CPXPARAM_MIP_Cuts_MIRCut                         2
CPXPARAM_Emphasis_MIP                            2
CPXPARAM_DetTimeLimit                            10000
Tried aggregator 3 times.
MIP Presolve eliminated 30810 rows and 1362 columns.
MIP Presolve modified 22293 coefficients.
Aggregator did 232 substitutions.
Reduced MIP has 11638 rows, 3580 columns, and 46688 nonzeros.
Reduced MIP has 1625 binaries, 0 generals, 0 SOSs, and 0 indicators.
Presolve time = 0.11 sec. (139.58 ticks)
Found incumbent of value 533875.101733 after 0.12 sec. (154.72 ticks)
Probing fixed 392 vars, tightened 1078 bounds.
Probing changed sense of 113 constraints.
Probing time = 0.08 sec. (90.30 ticks)
Cover probing fixed 0 vars, tightened 267 bounds.
Tried aggregator 2 times.
MIP Presolve eliminated 3295 rows and 847 columns.
MIP Presolve modified 7082 coefficients.
Aggregator did 11 substitutions.
Reduced MIP has 8332 rows, 2722 columns, and 31418 nonzeros.
Reduced MIP has 1168 binaries, 0 generals, 0 SOSs, and 0 indicators.
Presolve time = 0.04 sec. (44.43 ticks)
Probing fixed 1 vars, tightened 256 bounds.
Probing time = 0.04 sec. (44.20 ticks)
Cover probing fixed 0 vars, tightened 190 bounds.
Tried aggregator 1 time.
Detecting symmetries...
MIP Presolve eliminated 26 rows and 2 columns.
MIP Presolve modified 5059 coefficients.
Reduced MIP has 8306 rows, 2720 columns, and 31355 nonzeros.
Reduced MIP has 1167 binaries, 0 generals, 0 SOSs, and 0 indicators.
Presolve time = 0.02 sec. (22.06 ticks)
Probing fixed 0 vars, tightened 90 bounds.
Probing time = 0.04 sec. (40.55 ticks)
Cover probing fixed 0 vars, tightened 69 bounds.
Clique table members: 18692.
MIP emphasis: optimality.
MIP search method: dynamic search.
Parallel mode: deterministic, using up to 8 threads.
Root relaxation solution time = 0.11 sec. (144.31 ticks)

        Nodes                                         Cuts/
   Node  Left     Objective  IInf  Best Integer    Best Bound    ItCnt     Gap

*     0+    0                       533875.1017    44880.8652            91.59%
*     0+    0                       533847.9795    44880.8652            91.59%
*     0+    0                       333826.8649    44880.8652            86.56%
*     0+    0                       333809.0666    44880.8652            86.55%
      0     0    79213.0345   216   333809.0666    79213.0345     1531   76.27%
      0     0    96255.0233   295   333809.0666     Cuts: 197     2072   71.16%
      0     0    96264.3162   295   333809.0666     Cuts: 104     2671   71.16%
      0     0    96265.1601   304   333809.0666      Cuts: 39     2772   71.16%
*     0+    0                       333809.0666    96265.1601            71.16%
      0     0  -1.00000e+75     0   333809.0666    96265.1601     2772   71.16%
*     0+    0                       320985.2647    96265.1601            70.01%
      0     0    96265.4337   314   320985.2647      Cuts: 28     2864   70.01%
*     0+    0                       314546.4265    96265.4337            69.40%
      0     0  -1.00000e+75     0   314546.4265    96265.4337     2864   69.40%
Detecting symmetries...
      0     2    96265.4337   314   314546.4265    96265.4337     2864   69.40%
Elapsed time = 2.82 sec. (4529.45 ticks, tree = 0.02 MB, solutions = 7)
     11    12    99496.2726   231   314546.4265    96265.6502     4040   69.40%
     22    19   102704.1709   249   314546.4265    96281.6901     5606   69.39%
*    27+    4                       301720.5168    96281.6901            68.09%
     43    28   102687.4171   250   301720.5168    96281.6901     7595   68.09%
*    52+    6                       295307.3922    96281.6901            67.40%
     59    58    96759.1426   306   295307.3922    96281.6901    15637   67.40%
     71    62    97247.9800   258   295307.3922    96281.6901    18062   67.40%
     89    71   102722.6756   246   295307.3922    96281.6901    21947   67.40%
    108    96   115602.5799   172   295307.3922    96281.6901    32064   67.40%
    128   107   113628.4555   215   295307.3922    96281.6901    36500   67.40%
    155   124   115757.7012   172   295307.3922    96281.6901    40183   67.40%
    195   166        cutoff         295307.3922    96286.5531    58743   67.39%
Elapsed time = 4.96 sec. (7916.37 ticks, tree = 0.53 MB, solutions = 10)
    212   174    97417.6847   270   295307.3922    96286.5531    64387   67.39%
    267   200   103859.6994   200   295307.3922    96286.5531    75043   67.39%

Flow cuts applied:  374
Mixed integer rounding cuts applied:  337
Flow path cuts applied:  0
Zero-half cuts applied:  33
Gomory fractional cuts applied:  4

Root node processing (before b&c):
  Real time             =    2.79 sec. (4495.59 ticks)
Parallel b&c, 8 threads:
  Real time             =    3.44 sec. (5511.17 ticks)
  Sync time (average)   =    0.42 sec.
  Wait time (average)   =    0.00 sec.
                          ------------
Total (root+branch&cut) =    6.24 sec. (10006.76 ticks)
Gap: 67.39%
Upper bound: 295307
Lower bound: 96286.6
End of CPLEX run. Time: 6.23833 seconds

===== New CPLEX run =====
Instance: /home/yorig/tuner/mpils-tests/instances/miplib/medium-1/momentum1.mps
Config: /scratch/yorig/mpils-results-grid-ticks-10000/medium-1/16proc/seed-5/6_momentum1_seed-5_20260425_215516/iterated_local_search/run_2_worker_2/ils_config_6238734944755704202.prm
========================

Selected objective sense:  MINIMIZE
Selected objective  name:  MINIMIZE
Selected RHS        name:  rhs
Selected bound      name:  bnd
Version identifier: 22.1.2.0 | 2024-11-26 | 0edbb82fd
CPXPARAM_Threads                                 8
CPXPARAM_Parallel                                1
CPXPARAM_MIP_Cuts_Cliques                        -1
CPXPARAM_MIP_Cuts_FlowCovers                     2
CPXPARAM_MIP_Cuts_Implied                        -1
CPXPARAM_MIP_Limits_GomoryCand                   150
CPXPARAM_MIP_Cuts_Gomory                         2
CPXPARAM_MIP_Cuts_PathCut                        1
CPXPARAM_MIP_Cuts_MIRCut                         2
CPXPARAM_Emphasis_MIP                            2
CPXPARAM_DetTimeLimit                            10000
Tried aggregator 3 times.
MIP Presolve eliminated 30810 rows and 1362 columns.
MIP Presolve modified 22293 coefficients.
Aggregator did 232 substitutions.
Reduced MIP has 11638 rows, 3580 columns, and 46688 nonzeros.
Reduced MIP has 1625 binaries, 0 generals, 0 SOSs, and 0 indicators.
Presolve time = 0.11 sec. (139.58 ticks)
Found incumbent of value 533875.101733 after 0.12 sec. (154.72 ticks)
Probing fixed 392 vars, tightened 1078 bounds.
Probing changed sense of 113 constraints.
Probing time = 0.08 sec. (90.30 ticks)
Cover probing fixed 0 vars, tightened 267 bounds.
Tried aggregator 2 times.
MIP Presolve eliminated 3295 rows and 847 columns.
MIP Presolve modified 7082 coefficients.
Aggregator did 11 substitutions.
Reduced MIP has 8332 rows, 2722 columns, and 31418 nonzeros.
Reduced MIP has 1168 binaries, 0 generals, 0 SOSs, and 0 indicators.
Presolve time = 0.04 sec. (44.43 ticks)
Probing fixed 1 vars, tightened 256 bounds.
Probing time = 0.04 sec. (44.20 ticks)
Cover probing fixed 0 vars, tightened 190 bounds.
Tried aggregator 1 time.
Detecting symmetries...
MIP Presolve eliminated 26 rows and 2 columns.
MIP Presolve modified 5059 coefficients.
Reduced MIP has 8306 rows, 2720 columns, and 31355 nonzeros.
Reduced MIP has 1167 binaries, 0 generals, 0 SOSs, and 0 indicators.
Presolve time = 0.02 sec. (22.06 ticks)
Probing fixed 0 vars, tightened 90 bounds.
Probing time = 0.04 sec. (40.55 ticks)
Cover probing fixed 0 vars, tightened 69 bounds.
Clique table members: 18692.
MIP emphasis: optimality.
MIP search method: dynamic search.
Parallel mode: deterministic, using up to 8 threads.
Root relaxation solution time = 0.11 sec. (144.31 ticks)

        Nodes                                         Cuts/
   Node  Left     Objective  IInf  Best Integer    Best Bound    ItCnt     Gap

*     0+    0                       533875.1017    44880.8652            91.59%
*     0+    0                       533847.9795    44880.8652            91.59%
*     0+    0                       333826.8649    44880.8652            86.56%
*     0+    0                       333809.0666    44880.8652            86.55%
      0     0    79213.0345   216   333809.0666    79213.0345     1531   76.27%
      0     0    96255.0233   295   333809.0666     Cuts: 206     2056   71.16%
      0     0    96264.3162   295   333809.0666     Cuts: 106     2652   71.16%
      0     0    96265.1512   304   333809.0666      Cuts: 39     2744   71.16%
*     0+    0                       320985.2647    96265.1512            70.01%
      0     0    96265.4275   317   320985.2647      Cuts: 33     2855   70.01%
*     0+    0                       314551.6857    96265.4275            69.40%
      0     0  -1.00000e+75     0   314551.6857    96265.4275     2855   69.40%
Detecting symmetries...
      0     2    96265.4275   317   314551.6857    96265.4275     2855   69.40%
Elapsed time = 2.52 sec. (4058.37 ticks, tree = 0.02 MB, solutions = 6)
     11    12    99496.2138   231   314551.6857    96265.6440     3974   69.40%
*    20+    7                       314551.4543    96273.5537            69.39%
*    22+    6                       308112.8353    96273.5537            68.75%
     24    21   102731.1892   230   308112.8353    96273.5537     5596   68.75%
     43    42   102708.2895   223   308112.8353    96281.6830    10628   68.75%
     56    54   102722.8137   257   308112.8353    96281.6830    13358   68.75%
     65    64    96757.0906   288   308112.8353    96281.6830    19703   68.75%
     80    77    96769.5720   290   308112.8353    96281.6830    26980   68.75%
    107    95   102770.2211   172   308112.8353    96281.6830    33291   68.75%
    147    98   102932.4859   233   308112.8353    96281.6830    34912   68.75%
    173   129   105933.4274   164   308112.8353    96281.6830    40083   68.75%
    280   221   115588.6651   106   308112.8353    96281.6830    52321   68.75%
Elapsed time = 4.50 sec. (7292.46 ticks, tree = 0.76 MB, solutions = 9)
    406   297   104845.0682   217   308112.8353    96281.6830    71987   68.75%
    503   390   121964.9789    97   308112.8353    96281.6830    84807   68.75%

Flow cuts applied:  413
Mixed integer rounding cuts applied:  380
Flow path cuts applied:  0
Zero-half cuts applied:  39
Gomory fractional cuts applied:  10

Root node processing (before b&c):
  Real time             =    2.49 sec. (4024.73 ticks)
Parallel b&c, 8 threads:
  Real time             =    3.77 sec. (5981.06 ticks)
  Sync time (average)   =    0.39 sec.
  Wait time (average)   =    0.00 sec.
                          ------------
Total (root+branch&cut) =    6.26 sec. (10005.80 ticks)
Gap: 68.75%
Upper bound: 308113
Lower bound: 96286.5
End of CPLEX run. Time: 6.26012 seconds

===== New CPLEX run =====
Instance: /home/yorig/tuner/mpils-tests/instances/miplib/medium-1/momentum1.mps
Config: /scratch/yorig/mpils-results-grid-ticks-10000/medium-1/16proc/seed-5/6_momentum1_seed-5_20260425_215516/iterated_local_search/run_2_worker_2/ils_config_11801168324195268443.prm
========================

Selected objective sense:  MINIMIZE
Selected objective  name:  MINIMIZE
Selected RHS        name:  rhs
Selected bound      name:  bnd
Version identifier: 22.1.2.0 | 2024-11-26 | 0edbb82fd
CPXPARAM_Threads                                 8
CPXPARAM_Parallel                                1
CPXPARAM_MIP_Cuts_Cliques                        -1
CPXPARAM_MIP_Cuts_FlowCovers                     2
CPXPARAM_MIP_Cuts_Implied                        -1
CPXPARAM_MIP_Limits_GomoryCand                   50
CPXPARAM_MIP_Cuts_Gomory                         2
CPXPARAM_MIP_Cuts_PathCut                        1
CPXPARAM_MIP_Cuts_MIRCut                         -1
CPXPARAM_Emphasis_MIP                            2
CPXPARAM_DetTimeLimit                            10000
Tried aggregator 3 times.
MIP Presolve eliminated 30810 rows and 1362 columns.
MIP Presolve modified 22293 coefficients.
Aggregator did 232 substitutions.
Reduced MIP has 11638 rows, 3580 columns, and 46688 nonzeros.
Reduced MIP has 1625 binaries, 0 generals, 0 SOSs, and 0 indicators.
Presolve time = 0.11 sec. (139.58 ticks)
Found incumbent of value 533875.101733 after 0.12 sec. (154.72 ticks)
Probing fixed 392 vars, tightened 1078 bounds.
Probing changed sense of 113 constraints.
Probing time = 0.08 sec. (90.30 ticks)
Cover probing fixed 0 vars, tightened 267 bounds.
Tried aggregator 2 times.
MIP Presolve eliminated 3295 rows and 847 columns.
MIP Presolve modified 7082 coefficients.
Aggregator did 11 substitutions.
Reduced MIP has 8332 rows, 2722 columns, and 31418 nonzeros.
Reduced MIP has 1168 binaries, 0 generals, 0 SOSs, and 0 indicators.
Presolve time = 0.04 sec. (44.43 ticks)
Probing fixed 1 vars, tightened 256 bounds.
Probing time = 0.04 sec. (44.20 ticks)
Cover probing fixed 0 vars, tightened 190 bounds.
Tried aggregator 1 time.
Detecting symmetries...
MIP Presolve eliminated 26 rows and 2 columns.
MIP Presolve modified 5059 coefficients.
Reduced MIP has 8306 rows, 2720 columns, and 31355 nonzeros.
Reduced MIP has 1167 binaries, 0 generals, 0 SOSs, and 0 indicators.
Presolve time = 0.02 sec. (22.06 ticks)
Probing fixed 0 vars, tightened 90 bounds.
Probing time = 0.04 sec. (40.55 ticks)
Cover probing fixed 0 vars, tightened 69 bounds.
Clique table members: 18692.
MIP emphasis: optimality.
MIP search method: dynamic search.
Parallel mode: deterministic, using up to 8 threads.
Root relaxation solution time = 0.11 sec. (144.31 ticks)

        Nodes                                         Cuts/
   Node  Left     Objective  IInf  Best Integer    Best Bound    ItCnt     Gap

*     0+    0                       533875.1017    44880.8652            91.59%
*     0+    0                       533847.9795    44880.8652            91.59%
*     0+    0                       333826.8649    44880.8652            86.56%
*     0+    0                       333809.0666    44880.8652            86.55%
      0     0    79213.0345   216   333809.0666    79213.0345     1531   76.27%
      0     0    96254.6419   297   333809.0666     Cuts: 173     2055   71.16%
      0     0    96260.5496   273   333809.0666      Cuts: 69     2327   71.16%
      0     0    96261.7665   288   333809.0666      Cuts: 31     2446   71.16%
*     0+    0                       314540.8714    96261.7665            69.40%
      0     0  -1.00000e+75     0   314540.8714    96261.7665     2446   69.40%
      0     0    96261.8952   288   314540.8714      Cuts: 13     2463   69.40%
*     0+    0                       314540.8712    96261.8952            69.40%
      0     0  -1.00000e+75     0   314540.8712    96261.8952     2463   69.40%
Detecting symmetries...
      0     2    96261.8952   288   314540.8712    96261.8952     2463   69.40%
Elapsed time = 2.06 sec. (3372.43 ticks, tree = 0.02 MB, solutions = 6)
     19    14   102715.2620   220   314540.8712    96269.9098     4259   69.39%
*    21+    4                       308127.3863    96269.9098            68.76%
*    37+    7                       308115.7919    96269.9098            68.76%
     63    51    96400.3868   230   308115.7919    96284.8917     8302   68.75%
     80    25   107817.8582   201   308115.7919    96284.8917     6266   68.75%
     85    77   111228.4676   249   308115.7919    96284.8917    16422   68.75%
     95    79   115565.0294   217   308115.7919    96284.8917    17588   68.75%
    131   112   115592.7453   175   308115.7919    96284.8917    25704   68.75%
    159   122   121917.8208   149   308115.7919    96284.8917    27334   68.75%
    195   153   122328.8928   140   308115.7919    96284.8917    34944   68.75%
    224   165   102732.0426   132   308115.7919    96284.8917    37543   68.75%
    325   271   128410.9221   106   308115.7919    96284.8917    51019   68.75%
Elapsed time = 3.91 sec. (6598.76 ticks, tree = 0.72 MB, solutions = 10)
    410   334   109212.8422   174   308115.7919    96284.8917    62720   68.75%
    534   458        cutoff         308115.7919    96284.8917    74633   68.75%
    657   476    96294.8459   209   308115.7919    96284.8917    81594   68.75%

Flow cuts applied:  105
Flow path cuts applied:  0
Zero-half cuts applied:  41
Gomory fractional cuts applied:  4

Root node processing (before b&c):
  Real time             =    2.04 sec. (3345.26 ticks)
Parallel b&c, 8 threads:
  Real time             =    4.07 sec. (6659.48 ticks)
  Sync time (average)   =    0.48 sec.
  Wait time (average)   =    0.00 sec.
                          ------------
Total (root+branch&cut) =    6.11 sec. (10004.74 ticks)
Gap: 68.75%
Upper bound: 308116
Lower bound: 96284.9
End of CPLEX run. Time: 6.10935 seconds

===== New CPLEX run =====
Instance: /home/yorig/tuner/mpils-tests/instances/miplib/medium-1/momentum1.mps
Config: /scratch/yorig/mpils-results-grid-ticks-10000/medium-1/16proc/seed-5/6_momentum1_seed-5_20260425_215516/iterated_local_search/run_2_worker_2/ils_config_7632605822339288000.prm
========================

Selected objective sense:  MINIMIZE
Selected objective  name:  MINIMIZE
Selected RHS        name:  rhs
Selected bound      name:  bnd
Version identifier: 22.1.2.0 | 2024-11-26 | 0edbb82fd
CPXPARAM_Threads                                 8
CPXPARAM_Parallel                                1
CPXPARAM_MIP_Cuts_Cliques                        -1
CPXPARAM_MIP_Cuts_FlowCovers                     2
CPXPARAM_MIP_Limits_GomoryCand                   50
CPXPARAM_MIP_Cuts_Gomory                         2
CPXPARAM_MIP_Cuts_PathCut                        1
CPXPARAM_MIP_Cuts_MIRCut                         2
CPXPARAM_Emphasis_MIP                            2
CPXPARAM_DetTimeLimit                            10000
Tried aggregator 3 times.
MIP Presolve eliminated 30810 rows and 1362 columns.
MIP Presolve modified 22293 coefficients.
Aggregator did 232 substitutions.
Reduced MIP has 11638 rows, 3580 columns, and 46688 nonzeros.
Reduced MIP has 1625 binaries, 0 generals, 0 SOSs, and 0 indicators.
Presolve time = 0.11 sec. (139.58 ticks)
Found incumbent of value 533875.101733 after 0.12 sec. (154.72 ticks)
Probing fixed 392 vars, tightened 1078 bounds.
Probing changed sense of 113 constraints.
Probing time = 0.09 sec. (90.30 ticks)
Cover probing fixed 0 vars, tightened 267 bounds.
Tried aggregator 2 times.
MIP Presolve eliminated 3295 rows and 847 columns.
MIP Presolve modified 7082 coefficients.
Aggregator did 11 substitutions.
Reduced MIP has 8332 rows, 2722 columns, and 31418 nonzeros.
Reduced MIP has 1168 binaries, 0 generals, 0 SOSs, and 0 indicators.
Presolve time = 0.04 sec. (44.43 ticks)
Probing fixed 1 vars, tightened 256 bounds.
Probing time = 0.04 sec. (44.20 ticks)
Cover probing fixed 0 vars, tightened 190 bounds.
Tried aggregator 1 time.
Detecting symmetries...
MIP Presolve eliminated 26 rows and 2 columns.
MIP Presolve modified 5059 coefficients.
Reduced MIP has 8306 rows, 2720 columns, and 31355 nonzeros.
Reduced MIP has 1167 binaries, 0 generals, 0 SOSs, and 0 indicators.
Presolve time = 0.02 sec. (22.06 ticks)
Probing fixed 0 vars, tightened 90 bounds.
Probing time = 0.04 sec. (40.55 ticks)
Cover probing fixed 0 vars, tightened 69 bounds.
Clique table members: 18692.
MIP emphasis: optimality.
MIP search method: dynamic search.
Parallel mode: deterministic, using up to 8 threads.
Root relaxation solution time = 0.11 sec. (144.31 ticks)

        Nodes                                         Cuts/
   Node  Left     Objective  IInf  Best Integer    Best Bound    ItCnt     Gap

*     0+    0                       533875.1017    44880.8652            91.59%
*     0+    0                       533847.9795    44880.8652            91.59%
*     0+    0                       333826.8649    44880.8652            86.56%
*     0+    0                       333809.0666    44880.8652            86.55%
      0     0    79213.0345   216   333809.0666    79213.0345     1531   76.27%
      0     0    96255.0282   295   333809.0666     Cuts: 198     2073   71.16%
      0     0    96264.3224   294   333809.0666     Cuts: 111     2624   71.16%
      0     0    96265.1898   302   333809.0666      Cuts: 49     2739   71.16%
*     0+    0                       333792.4409    96265.1898            71.16%
      0     0  -1.00000e+75     0   333792.4409    96265.1898     2739   71.16%
*     0+    0                       320985.2647    96265.1898            70.01%
      0     0    96265.4687   311   320985.2647      Cuts: 33     2826   70.01%
*     0+    0                       320968.4480    96265.4687            70.01%
      0     0  -1.00000e+75     0   320968.4480    96265.4687     2826   70.01%
Detecting symmetries...
      0     2    96265.4687   311   320968.4480    96265.4687     2826   70.01%
Elapsed time = 2.97 sec. (4893.06 ticks, tree = 0.02 MB, solutions = 7)
     16    13   102691.3963   238   320968.4480    96265.6852     4392   70.01%
*    25+    4                       320968.4479    96281.7242            70.00%
*    26+    7                       314554.8171    96281.7242            69.39%
     28    19   102701.3326   219   314554.8171    96281.7242     6560   69.39%
*    36+    5                       301726.1207    96286.5692            68.09%
     52    25   103390.2342   247   301726.1207    96286.5692     8140   68.09%
     65    59   103008.5658   265   301726.1207    96286.5692    14513   68.09%
     71    58   109115.1367   120   301726.1207    96292.6247    15307   68.09%
     75    70   103590.0533   260   301726.1207    96292.6247    19627   68.09%
    100    80   109120.0083   138   301726.1207    96292.6247    23436   68.09%
    117    99    97317.3706   271   301726.1207    96292.6247    36006   68.09%
    133   114   102760.9650   254   301726.1207    96292.6247    39124   68.09%
    233   172   117331.2692   219   301726.1207    96292.6247    57230   68.09%
Elapsed time = 4.93 sec. (8164.66 ticks, tree = 0.40 MB, solutions = 11)
    343   262   115844.9111   113   301726.1207    96292.6247    75237   68.09%

Implied bound cuts applied:  23
Flow cuts applied:  203
Mixed integer rounding cuts applied:  150
Flow path cuts applied:  0
Zero-half cuts applied:  27
Gomory fractional cuts applied:  4

Root node processing (before b&c):
  Real time             =    2.94 sec. (4859.75 ticks)
Parallel b&c, 8 threads:
  Real time             =    3.15 sec. (5148.97 ticks)
  Sync time (average)   =    0.32 sec.
  Wait time (average)   =    0.00 sec.
                          ------------
Total (root+branch&cut) =    6.09 sec. (10008.72 ticks)
Gap: 68.09%
Upper bound: 301726
Lower bound: 96292.6
End of CPLEX run. Time: 6.09644 seconds
